(declare-const _a_0_ Real)
(declare-const _a_1_ Real)
(declare-const _a_2_ Real)
(declare-const _a_3_ Real)
(declare-const _a_4_ Real)
(declare-const _a_5_ Real)
(assert (forall ((x_0 Real) (s_0 Real) (a_0 Real) (r_0 Real) ) (=> (and (>= (+ (* 1 a_0) (* 0 1) ) 0)) (and (>= (+ (* 1 a_0) (* 0 1) ) 0)))))
(assert (forall ((x_0 Real) (s_0 Real) (a_0 Real) (r_0 Real) ) (=> (and (>= (+ (* 1 a_0) (* 0 1) ) 0)) (and (>= (* 0 1)  0)))))
(assert (forall ((x_0 Real) (s_0 Real) (a_0 Real) (r_0 Real) ) (=> (and (>= (+ (* 1 a_0) (* 0 1) ) 0)) (and (>= (* 0 1)  0)))))
(assert (forall ((x_0 Real) (s_0 Real) (a_0 Real) (r_0 Real) ) (=> (and (>= (+ (* 1 a_0) (* 0 1) ) 0)) (and (>= (+ (* 0 1) (* 0 a_0) ) 0)))))
(assert (forall ((x_0 Real) (s_0 Real) (a_0 Real) (r_0 Real) ) (=> (and (>= (+ (* 1 a_0) (* 0 1) ) 0)) (and (>= (+ (* 0 1) (* 0 a_0) ) 0)))))
(assert (forall ((x_0 Real) (s_0 Real) (a_0 Real) (r_0 Real) ) (=> (and (>= (+ (* 1 x_0) (* 0 1) ) 0)(>= (+ (* 1. 1) (* 12. (*  r_0   r_0  )) (* -4. s_0) ) 0)(>= (+ (* -12. (*  r_0   r_0  )) (* 4. s_0) (* -1. 1) ) 0)(>= (+ (* 1. 1) (* -4. (*  r_0   r_0   r_0  )) (* 6. (*  r_0   r_0  )) (* -3. r_0) (* -4. x_0) (* 4. a_0) ) 0)(>= (+ (* 4. (*  r_0   r_0   r_0  )) (* -6. (*  r_0   r_0  )) (* 3. r_0) (* 4. x_0) (* -4. a_0) (* -1. 1) ) 0)(>= (+ (* -1 x_0) (* 1 s_0) ) 0)) (and (>= (+ (* 4. (*  r_0   r_0   r_0  )) (* 6. (*  r_0   r_0  )) (* 3. r_0) (* -4. a_0) ) 0)))))
(assert (forall ((x_0 Real) (s_0 Real) (a_0 Real) (r_0 Real) ) (=> (and (>= (+ (* 1 x_0) (* 0 1) ) 0)(>= (+ (* 1. 1) (* 12. (*  r_0   r_0  )) (* -4. s_0) ) 0)(>= (+ (* -12. (*  r_0   r_0  )) (* 4. s_0) (* -1. 1) ) 0)(>= (+ (* 1. 1) (* -4. (*  r_0   r_0   r_0  )) (* 6. (*  r_0   r_0  )) (* -3. r_0) (* -4. x_0) (* 4. a_0) ) 0)(>= (+ (* 4. (*  r_0   r_0   r_0  )) (* -6. (*  r_0   r_0  )) (* 3. r_0) (* 4. x_0) (* -4. a_0) (* -1. 1) ) 0)(>= (+ (* -1 x_0) (* 1 s_0) ) 0)) (and (>= (+ (* 4. a_0) (* -4. (*  r_0   r_0   r_0  )) (* 6. (*  r_0   r_0  )) (* -3. r_0) (* 1. 1) ) 0)))))
(assert (forall ((x_0 Real) (s_0 Real) (a_0 Real) (r_0 Real) ) (=> (and (>= (+ (* 1 x_0) (* 0 1) ) 0)(>= (+ (* 1. 1) (* 12. (*  r_0   r_0  )) (* -4. s_0) ) 0)(>= (+ (* -12. (*  r_0   r_0  )) (* 4. s_0) (* -1. 1) ) 0)(>= (+ (* 1. 1) (* -4. (*  r_0   r_0   r_0  )) (* 6. (*  r_0   r_0  )) (* -3. r_0) (* -4. x_0) (* 4. a_0) ) 0)(>= (+ (* 4. (*  r_0   r_0   r_0  )) (* -6. (*  r_0   r_0  )) (* 3. r_0) (* 4. x_0) (* -4. a_0) (* -1. 1) ) 0)(>= (+ (* 1 x_0) (* -1 s_0) (* 0 1) ) 0)) (and (>= (+ (* _a_0_ 1) (* _a_1_ s_0) (* _a_2_ x_0) ) 0)))))
(assert (forall ((x_0 Real) (s_0 Real) (a_0 Real) (r_0 Real) ) (=> (and (>= (+ (* 1 x_0) (* 0 1) ) 0)(>= (+ (* 1. 1) (* 12. (*  r_0   r_0  )) (* -4. s_0) ) 0)(>= (+ (* -12. (*  r_0   r_0  )) (* 4. s_0) (* -1. 1) ) 0)(>= (+ (* 1. 1) (* -4. (*  r_0   r_0   r_0  )) (* 6. (*  r_0   r_0  )) (* -3. r_0) (* -4. x_0) (* 4. a_0) ) 0)(>= (+ (* 4. (*  r_0   r_0   r_0  )) (* -6. (*  r_0   r_0  )) (* 3. r_0) (* 4. x_0) (* -4. a_0) (* -1. 1) ) 0)(>= (+ (* 1 x_0) (* -1 s_0) (* 0 1) ) 0)) (and (>= (+ (* (+ 13. (* -4. _a_3_)) 1) (* 12. (*  r_0   r_0  )) (* (+ 24. (* -4. _a_5_)) r_0) (* (* -4. _a_4_) s_0) ) 0)))))
(assert (forall ((x_0 Real) (s_0 Real) (a_0 Real) (r_0 Real) ) (=> (and (>= (+ (* 1 x_0) (* 0 1) ) 0)(>= (+ (* 1. 1) (* 12. (*  r_0   r_0  )) (* -4. s_0) ) 0)(>= (+ (* -12. (*  r_0   r_0  )) (* 4. s_0) (* -1. 1) ) 0)(>= (+ (* 1. 1) (* -4. (*  r_0   r_0   r_0  )) (* 6. (*  r_0   r_0  )) (* -3. r_0) (* -4. x_0) (* 4. a_0) ) 0)(>= (+ (* 4. (*  r_0   r_0   r_0  )) (* -6. (*  r_0   r_0  )) (* 3. r_0) (* 4. x_0) (* -4. a_0) (* -1. 1) ) 0)(>= (+ (* 1 x_0) (* -1 s_0) (* 0 1) ) 0)) (and (>= (+ (* -12. (*  r_0   r_0  )) (* (+ -24. (* 4. _a_5_)) r_0) (* (+ -13. (* 4. _a_3_)) 1) (* (* 4. _a_4_) s_0) ) 0)))))
(assert (forall ((x_0 Real) (s_0 Real) (a_0 Real) (r_0 Real) ) (=> (and (>= (+ (* 1 x_0) (* 0 1) ) 0)(>= (+ (* 1. 1) (* 12. (*  r_0   r_0  )) (* -4. s_0) ) 0)(>= (+ (* -12. (*  r_0   r_0  )) (* 4. s_0) (* -1. 1) ) 0)(>= (+ (* 1. 1) (* -4. (*  r_0   r_0   r_0  )) (* 6. (*  r_0   r_0  )) (* -3. r_0) (* -4. x_0) (* 4. a_0) ) 0)(>= (+ (* 4. (*  r_0   r_0   r_0  )) (* -6. (*  r_0   r_0  )) (* 3. r_0) (* 4. x_0) (* -4. a_0) (* -1. 1) ) 0)(>= (+ (* 1 x_0) (* -1 s_0) (* 0 1) ) 0)) (and (>= (+ (* (* -4. _a_0_) 1) (* -4. (*  r_0   r_0   r_0  )) (* -6. (*  r_0   r_0  )) (* -3. r_0) (* (* -4. _a_1_) s_0) (* (* -4. _a_2_) x_0) (* 4. a_0) ) 0)))))
(assert (forall ((x_0 Real) (s_0 Real) (a_0 Real) (r_0 Real) ) (=> (and (>= (+ (* 1 x_0) (* 0 1) ) 0)(>= (+ (* 1. 1) (* 12. (*  r_0   r_0  )) (* -4. s_0) ) 0)(>= (+ (* -12. (*  r_0   r_0  )) (* 4. s_0) (* -1. 1) ) 0)(>= (+ (* 1. 1) (* -4. (*  r_0   r_0   r_0  )) (* 6. (*  r_0   r_0  )) (* -3. r_0) (* -4. x_0) (* 4. a_0) ) 0)(>= (+ (* 4. (*  r_0   r_0   r_0  )) (* -6. (*  r_0   r_0  )) (* 3. r_0) (* 4. x_0) (* -4. a_0) (* -1. 1) ) 0)(>= (+ (* 1 x_0) (* -1 s_0) (* 0 1) ) 0)) (and (>= (+ (* 4. (*  r_0   r_0   r_0  )) (* 6. (*  r_0   r_0  )) (* 3. r_0) (* (* 4. _a_0_) 1) (* (* 4. _a_1_) s_0) (* (* 4. _a_2_) x_0) (* -4. a_0) ) 0)))))
(check-sat)
(get-model)

